
Gurobi 10.0.1 (linux64) logging started Sun Nov 26 15:37:25 2023

Set parameter LogFile to value "ArtificialInstance/ExperimentV2/S3T3K1/AdSp/gurobi1.txt"
Gurobi Optimizer version 10.0.1 build v10.0.1rc0 (linux64)

CPU model: AMD EPYC 7H12 64-Core Processor, instruction set [SSE2|AVX|AVX2]
Thread count: 128 physical cores, 128 logical processors, using up to 32 threads

Academic license 656792 - for non-commercial use only - registered to b.___@student.vu.nl
Optimize a model with 2972 rows, 2884 columns and 10840 nonzeros
Model fingerprint: 0xaa30252d
Variable types: 0 continuous, 2884 integer (2884 binary)
Coefficient statistics:
  Matrix range     [1e+00, 1e+00]
  Objective range  [1e+00, 2e+01]
  Bounds range     [1e+00, 1e+00]
  RHS range        [1e+00, 1e+00]
Presolve removed 306 rows and 290 columns
Presolve time: 0.04s
Presolved: 2666 rows, 2594 columns, 10024 nonzeros
Variable types: 0 continuous, 2594 integer (2594 binary)
Found heuristic solution: objective 425.0426406

Root relaxation: objective 4.032448e+01, 1435 iterations, 0.03 seconds (0.03 work units)

    Nodes    |    Current Node    |     Objective Bounds      |     Work
 Expl Unexpl |  Obj  Depth IntInf | Incumbent    BestBd   Gap | It/Node Time

     0     0   40.32448    0  238  425.04264   40.32448  90.5%     -    0s
H    0     0                     345.3616993   40.32448  88.3%     -    0s
H    0     0                     155.9909604   40.32448  74.1%     -    0s
H    0     0                      52.8287608   40.32448  23.7%     -    0s
H    0     0                      41.9949029   40.32448  3.98%     -    0s

Cutting planes:
  Gomory: 1
  Zero half: 17

Explored 1 nodes (1982 simplex iterations) in 0.15 seconds (0.09 work units)
Thread count was 32 (of 128 available processors)

Solution count 5: 41.9949 52.8288 155.991 ... 425.043

Optimal solution found (tolerance 1.00e-04)
Best objective 4.199490288091e+01, best bound 4.199490288091e+01, gap 0.0000%
